(set-logic QF_NIA)
(set-info :source |
    Sequential equivalence checking.
    Calypto Design Systems, Inc. <www.calypto.com>
  |)
(set-info :smt-lib-version 2.0)
(set-info :category "industrial")
(set-info :status sat)
(declare-fun P_2 () Int)
(declare-fun P_3 () Int)
(declare-fun P_4 () Int)
(declare-fun P_5 () Int)
(declare-fun P_6 () Int)
(declare-fun P_7 () Int)
(declare-fun P_8 () Int)
(declare-fun P_9 () Int)
(assert (<= 0 P_2))
(assert (<= P_2 3))
(assert (<= 0 P_3))
(assert (<= P_3 3))
(assert (<= 0 P_4))
(assert (<= P_4 43))
(assert (<= 0 P_5))
(assert (<= P_5 2818572864))
(assert (<= 0 P_6))
(assert (<= P_6 3848290795520))
(assert (<= 0 P_7))
(assert (<= P_7 15))
(assert (<= 0 P_8))
(assert (<= P_8 15))
(assert (<= 0 P_9))
(assert (<= P_9 58720268))
(declare-fun dz () Int)
(declare-fun rz () Bool)
(assert (let ((?v_0 (+ 8388608 (+ (* P_2 2097152) P_3))) (?v_1 (not (= P_4 43)))) (let ((?v_2 (+ (+ (+ (+ (+ (* (- ?v_0) 64) 0) (ite ?v_1 P_5 0)) P_6) (* (* P_7 ?v_0) 4)) (* (ite ?v_1 P_8 0) P_9)))) (let ((?v_4 (< ?v_2 0)) (?v_3 (- (* 1 (- 1)) (- ?v_2 (* 1073741824 (- 1)))))) (= (+ (* 2 dz) 1) (- (ite (and (not (= (ite (not ?v_4) ?v_2 (ite (>= ?v_3 0) ?v_3 (+ ?v_3 1073741824))) 0)) ?v_4) 1 0) (ite ?v_4 1 0)))))))
(check-sat)
(exit)
